# HF/6-31G(d)

title

0 1
  C    15.84099960    12.23099995    16.81900024
  H    16.68899918    12.78299999    17.18700027
  H    15.91800022    12.06299973    15.70600033
  H    15.78199959    11.22799969    17.34300041
  C    14.52799988    12.96899986    17.05100060
  H    14.62899971    13.89900017    16.40200043
  H    14.44600010    13.28800011    18.12800026
  C    13.21899986    12.19699955    16.56200027
  H    13.17199993    11.23400021    17.00699997
  H    13.44900036    11.92399979    15.48900032
  C    11.89900017    12.92899990    16.73800087
  H    12.07900047    13.79500008    16.05900002
  H    11.82299995    13.35000038    17.83499908
  C    10.63300037    12.19099998    16.37400055
  H    10.38399982    11.46100044    17.12400055
  H    10.80399990    11.61900043    15.46000004
  C     9.50399971    13.27499962    16.26899910
  H     9.33199978    13.83699989    17.20899963
  H     8.59099960    12.80099964    15.85799980
  H     9.71500015    13.93400002    15.47200012
  C    15.92892647    17.56115341    15.09898376
  H    16.77392578    17.20915413    14.48798370
  H    16.33292580    18.11215401    15.94498348
  H    15.34092617    18.12715340    14.45098400
  C    15.09792614    16.47515488    15.70998383
  H    15.58692741    15.84115314    16.41098213
  H    14.76792622    15.78915310    14.91198349
  C    13.87092686    17.09115410    16.38798332
  H    13.31092644    17.74715424    15.69698334
  H    14.27292633    17.72915459    17.17598343
  C    12.82392693    15.98315334    16.81198311
  H    13.07292652    15.47315311    17.70198250
  H    12.74192619    15.33115292    15.98198318
  C    11.36992645    16.44515419    17.05898285
  H    11.03492641    17.04615402    16.16498375
  H    11.40892696    17.22115326    17.86898232
  C    10.35692692    15.37515354    17.34498215
  H    10.40492630    14.71315289    16.43698311
  H     9.37892628    15.87115383    17.47098351
  H    10.67092609    14.71815395    18.19398308

