# HF/6-31G(d)

title

0 1
  C    13.43799973    18.83499908    15.08699989
  H    13.12600040    17.79800034    15.25000000
  H    14.44099998    18.95499992    15.45499992
  O    12.53600025    19.84499931    15.76000023
  C    12.27499962    19.61199951    17.10199928
  H    11.74300003    20.40600014    17.49399948
  H    13.18000031    19.41200066    17.71599960
  H    11.53299999    18.84700012    17.17300034
  C    13.47999954    19.13100052    13.58500004
  H    12.61499977    18.81999969    13.08800030
  H    14.30900002    18.68700027    13.06099987
  O    13.60599995    20.54800034    13.47000027
  H    13.22999954    20.86599922    14.27000046
  C    14.14522743    12.89566135    16.71313095
  H    13.25422764    12.29166126    16.92813110
  H    14.41822815    13.30166149    17.73213196
  O    13.75322723    13.87966156    15.76613140
  C    12.60822773    14.71466160    16.03013039
  H    12.78422737    15.65666199    15.53213120
  H    12.54322815    14.78966141    17.14913177
  H    11.68222809    14.24066162    15.77313137
  C    15.26522732    12.02366161    16.11513138
  H    14.78522778    11.22166157    15.44713116
  H    15.86022758    11.63266182    16.93813133
  O    15.97422791    12.94166183    15.38313103
  H    15.32522774    13.62666130    15.33613110

