# HF/6-31G(d)

title

0 1
  C    15.84099960    12.23099995    16.81900024
  H    16.68899918    12.78299999    17.18700027
  H    15.91800022    12.06299973    15.70600033
  H    15.78199959    11.22799969    17.34300041
  C    14.52799988    12.96899986    17.05100060
  H    14.62899971    13.89900017    16.40200043
  H    14.44600010    13.28800011    18.12800026
  C    13.21899986    12.19699955    16.56200027
  H    13.17199993    11.23400021    17.00699997
  H    13.44900036    11.92399979    15.48900032
  C    11.89900017    12.92899990    16.73800087
  H    12.07900047    13.79500008    16.05900002
  H    11.82299995    13.35000038    17.83499908
  C    10.63300037    12.19099998    16.37400055
  H    10.38399982    11.46100044    17.12400055
  H    10.80399990    11.61900043    15.46000004
  C     9.50399971    13.27499962    16.26899910
  H     9.33199978    13.83699989    17.20899963
  H     8.59099960    12.80099964    15.85799980
  H     9.71500015    13.93400002    15.47200012
  C    16.07119560    18.43134117    15.04598808
  H    16.91619492    18.07934189    14.43498802
  H    16.47519493    18.98234177    15.89198780
  H    15.48319626    18.99734116    14.39798832
  C    15.24019623    17.34534264    15.65698814
  H    15.72919750    16.71134186    16.35798836
  H    14.91019630    16.65934181    14.85898781
  C    14.01319695    17.96134186    16.33498955
  H    13.45319653    18.61734200    15.64398766
  H    14.41519642    18.59934235    17.12298965
  C    12.96619701    16.85334206    16.75898933
  H    13.21519661    16.34334183    17.64898872
  H    12.88419628    16.20134163    15.92898750
  C    11.51219654    17.31534195    17.00598907
  H    11.17719650    17.91634178    16.11198807
  H    11.55119705    18.09134102    17.81598854
  C    10.49919701    16.24534225    17.29198837
  H    10.54719639    15.58334160    16.38398933
  H     9.52119637    16.74134254    17.41798973
  H    10.81319618    15.58834267    18.14098930

