# HF/6-31G(d)

title

0 1
  C    15.84099960    12.23099995    16.81900024
  H    16.68899918    12.78299999    17.18700027
  H    15.91800022    12.06299973    15.70600033
  H    15.78199959    11.22799969    17.34300041
  C    14.52799988    12.96899986    17.05100060
  H    14.62899971    13.89900017    16.40200043
  H    14.44600010    13.28800011    18.12800026
  C    13.21899986    12.19699955    16.56200027
  H    13.17199993    11.23400021    17.00699997
  H    13.44900036    11.92399979    15.48900032
  C    11.89900017    12.92899990    16.73800087
  H    12.07900047    13.79500008    16.05900002
  H    11.82299995    13.35000038    17.83499908
  C    10.63300037    12.19099998    16.37400055
  H    10.38399982    11.46100044    17.12400055
  H    10.80399990    11.61900043    15.46000004
  C     9.50399971    13.27499962    16.26899910
  H     9.33199978    13.83699989    17.20899963
  H     8.59099960    12.80099964    15.85799980
  H     9.71500015    13.93400002    15.47200012
  C    16.21346474    19.30153084    14.99299335
  H    17.05846405    18.94953156    14.38199329
  H    16.61746407    19.85253143    15.83899307
  H    15.62546539    19.86753082    14.34499359
  C    15.38246536    18.21553230    15.60399342
  H    15.87146664    17.58153152    16.30499268
  H    15.05246544    17.52953148    14.80599308
  C    14.15546608    18.83153152    16.28199387
  H    13.59546566    19.48753166    15.59099293
  H    14.55746555    19.46953201    17.06999397
  C    13.10846615    17.72353172    16.70599365
  H    13.35746574    17.21353149    17.59599304
  H    13.02646542    17.07153130    15.87599277
  C    11.65446568    18.18553162    16.95299339
  H    11.31946564    18.78653145    16.05899429
  H    11.69346619    18.96153069    17.76299286
  C    10.64146614    17.11553192    17.23899269
  H    10.68946552    16.45353127    16.33099365
  H     9.66346550    17.61153221    17.36499405
  H    10.95546532    16.45853233    18.08799362

