# HF/6-31G(d)

title

0 1
  C    15.84099960    12.23099995    16.81900024
  H    16.68899918    12.78299999    17.18700027
  H    15.91800022    12.06299973    15.70600033
  H    15.78199959    11.22799969    17.34300041
  C    14.52799988    12.96899986    17.05100060
  H    14.62899971    13.89900017    16.40200043
  H    14.44600010    13.28800011    18.12800026
  C    13.21899986    12.19699955    16.56200027
  H    13.17199993    11.23400021    17.00699997
  H    13.44900036    11.92399979    15.48900032
  C    11.89900017    12.92899990    16.73800087
  H    12.07900047    13.79500008    16.05900002
  H    11.82299995    13.35000038    17.83499908
  C    10.63300037    12.19099998    16.37400055
  H    10.38399982    11.46100044    17.12400055
  H    10.80399990    11.61900043    15.46000004
  C     9.50399971    13.27499962    16.26899910
  H     9.33199978    13.83699989    17.20899963
  H     8.59099960    12.80099964    15.85799980
  H     9.71500015    13.93400002    15.47200012
  C    16.35573578    20.17171860    14.93999863
  H    17.20073509    19.81971931    14.32899857
  H    16.75973511    20.72271919    15.78599834
  H    15.76773453    20.73771858    14.29199886
  C    15.52473450    19.08572006    15.55099869
  H    16.01373672    18.45171928    16.25199890
  H    15.19473457    18.39971924    14.75299835
  C    14.29773521    19.70171928    16.22900009
  H    13.73773479    20.35771942    15.53799820
  H    14.69973469    20.33971977    17.01700020
  C    13.25073528    18.59371948    16.65299988
  H    13.49973488    18.08371925    17.54299927
  H    13.16873455    17.94171906    15.82299805
  C    11.79673481    19.05571938    16.89999962
  H    11.46173477    19.65671921    16.00599861
  H    11.83573532    19.83171844    17.70999908
  C    10.78373528    17.98571968    17.18599892
  H    10.83173466    17.32371902    16.27799988
  H     9.80573463    18.48171997    17.31200027
  H    11.09773445    17.32872009    18.03499985

