# HF/6-31G(d)

title

0 1
  C    15.84099960    12.23099995    16.81900024
  H    16.68899918    12.78299999    17.18700027
  H    15.91800022    12.06299973    15.70600033
  H    15.78199959    11.22799969    17.34300041
  C    14.52799988    12.96899986    17.05100060
  H    14.62899971    13.89900017    16.40200043
  H    14.44600010    13.28800011    18.12800026
  C    13.21899986    12.19699955    16.56200027
  H    13.17199993    11.23400021    17.00699997
  H    13.44900036    11.92399979    15.48900032
  C    11.89900017    12.92899990    16.73800087
  H    12.07900047    13.79500008    16.05900002
  H    11.82299995    13.35000038    17.83499908
  C    10.63300037    12.19099998    16.37400055
  H    10.38399982    11.46100044    17.12400055
  H    10.80399990    11.61900043    15.46000004
  C     9.50399971    13.27499962    16.26899910
  H     9.33199978    13.83699989    17.20899963
  H     8.59099960    12.80099964    15.85799980
  H     9.71500015    13.93400002    15.47200012
  C    16.56913948    21.47700310    14.86050606
  H    17.41413879    21.12500381    14.24950600
  H    16.97313881    22.02800369    15.70650578
  H    15.98113918    22.04300308    14.21250629
  C    15.73813915    20.39100456    15.47150612
  H    16.22714043    19.75700378    16.17250633
  H    15.40813923    19.70500374    14.67350578
  C    14.51113987    21.00700378    16.14950752
  H    13.95113945    21.66300392    15.45850563
  H    14.91313934    21.64500427    16.93750763
  C    13.46413994    19.89900398    16.57350731
  H    13.71313953    19.38900375    17.46350670
  H    13.38213921    19.24700356    15.74350548
  C    12.01013947    20.36100388    16.82050705
  H    11.67513943    20.96200371    15.92650604
  H    12.04913998    21.13700294    17.63050652
  C    10.99713993    19.29100418    17.10650635
  H    11.04513931    18.62900352    16.19850731
  H    10.01913929    19.78700447    17.23250771
  H    11.31113911    18.63400459    17.95550728

