# HF/6-31G(d)

title

0 1
  C    15.84099960    12.23099995    16.81900024
  H    16.68899918    12.78299999    17.18700027
  H    15.91800022    12.06299973    15.70600033
  H    15.78199959    11.22799969    17.34300041
  C    14.52799988    12.96899986    17.05100060
  H    14.62899971    13.89900017    16.40200043
  H    14.44600010    13.28800011    18.12800026
  C    13.21899986    12.19699955    16.56200027
  H    13.17199993    11.23400021    17.00699997
  H    13.44900036    11.92399979    15.48900032
  C    11.89900017    12.92899990    16.73800087
  H    12.07900047    13.79500008    16.05900002
  H    11.82299995    13.35000038    17.83499908
  C    10.63300037    12.19099998    16.37400055
  H    10.38399982    11.46100044    17.12400055
  H    10.80399990    11.61900043    15.46000004
  C     9.50399971    13.27499962    16.26899910
  H     9.33199978    13.83699989    17.20899963
  H     8.59099960    12.80099964    15.85799980
  H     9.71500015    13.93400002    15.47200012
  C    16.67584038    22.12964439    14.82075977
  H    17.52083969    21.77764511    14.20975971
  H    17.07983971    22.68064499    15.66675949
  H    16.08784103    22.69564438    14.17276001
  C    15.84484100    21.04364586    15.43175983
  H    16.33384132    20.40964508    16.13275909
  H    15.51484108    20.35764503    14.63375950
  C    14.61784172    21.65964508    16.10976028
  H    14.05784130    22.31564522    15.41875935
  H    15.01984119    22.29764557    16.89776039
  C    13.57084179    20.55164528    16.53376007
  H    13.81984138    20.04164505    17.42375946
  H    13.48884106    19.89964485    15.70375919
  C    12.11684132    21.01364517    16.78075981
  H    11.78184128    21.61464500    15.88675976
  H    12.15584183    21.78964424    17.59075928
  C    11.10384178    19.94364548    17.06675911
  H    11.15184116    19.28164482    16.15876007
  H    10.12584114    20.43964577    17.19276047
  H    11.41784096    19.28664589    17.91576004

